p cnf 136 450
c t mc
-1 -2 -3 0
1 2 -3 0
-1 2 3 0
1 -2 3 0
6 -4 0
6 5 0
4 -5 -6 0
7 8 -9 0
-7 -8 -9 0
7 -8 9 0
-7 8 9 0
10 -6 0
10 9 0
6 -9 -10 0
12 1 0
12 -11 0
-1 11 -12 0
13 10 0
13 -12 0
-10 12 -13 0
-16 9 0
-16 15 0
-9 -15 16 0
17 -14 0
17 16 0
14 -16 -17 0
13 17 -18 0
-13 -17 -18 0
13 -17 18 0
-13 17 18 0
3 18 -19 0
-3 -18 -19 0
3 -18 19 0
-3 18 19 0
20 17 0
20 2 0
-17 -2 -20 0
-22 20 0
-22 -21 0
-20 21 22 0
6 12 -23 0
-6 -12 -23 0
6 -12 23 0
-6 12 23 0
-24 22 0
-24 23 0
-22 -23 24 0
-27 25 0
-27 26 0
-25 -26 27 0
27 28 0
-27 28 0
29 28 0
29 9 0
-28 -9 -29 0
32 -30 0
32 31 0
30 -31 -32 0
-29 -32 -33 0
29 32 -33 0
-29 32 33 0
29 -32 33 0
28 22 -34 0
-28 -22 -34 0
28 -22 34 0
-28 22 34 0
33 -34 -35 0
-33 34 -35 0
33 34 35 0
-33 -34 35 0
36 -24 0
36 35 0
24 -35 -36 0
-19 36 -37 0
19 -36 -37 0
-19 -36 37 0
19 36 37 0
38 -7 0
38 -5 0
7 5 -38 0
40 8 0
40 -33 0
-8 33 -40 0
-41 -39 0
-41 40 0
39 -40 41 0
38 41 -42 0
-38 -41 -42 0
38 -41 42 0
-38 41 42 0
-43 30 0
-43 -11 0
-30 11 43 0
-44 -42 0
-44 43 0
42 -43 44 0
-46 15 0
-46 -2 0
-15 2 46 0
47 45 0
47 -46 0
-45 46 -47 0
48 7 0
48 9 0
-7 -9 -48 0
-49 -40 0
-49 48 0
40 -48 49 0
-50 47 0
-50 -49 0
-47 49 50 0
-44 50 -51 0
44 -50 -51 0
-44 -50 51 0
44 50 51 0
-54 -52 0
-54 53 0
52 -53 54 0
55 54 0
55 22 0
-54 -22 -55 0
-52 55 -56 0
52 -55 -56 0
-52 -55 56 0
52 55 56 0
57 56 0
57 16 0
-56 -16 -57 0
-58 -51 0
-58 57 0
51 -57 58 0
-59 32 0
-59 31 0
-32 -31 59 0
-60 53 0
-60 -52 0
-53 52 60 0
61 40 0
61 -60 0
-40 60 -61 0
63 62 0
63 16 0
-62 -16 -63 0
-64 61 0
-64 -63 0
-61 63 64 0
-65 59 0
-65 64 0
-59 -64 65 0
-9 -60 -66 0
9 60 -66 0
-9 60 66 0
9 -60 66 0
-67 -66 0
-67 24 0
66 -24 67 0
-67 61 -68 0
67 -61 -68 0
-67 -61 68 0
67 61 68 0
-16 -13 -69 0
16 13 -69 0
-16 13 69 0
16 -13 69 0
71 -69 0
71 -70 0
69 70 -71 0
-72 -66 0
-72 11 0
66 -11 72 0
73 71 0
73 -72 0
-71 72 -73 0
68 73 -74 0
-68 -73 -74 0
68 -73 74 0
-68 73 74 0
75 31 0
75 69 0
-31 -69 -75 0
35 -76 -77 0
-35 76 -77 0
35 76 77 0
-35 -76 77 0
75 -77 -78 0
-75 77 -78 0
75 77 78 0
-75 -77 78 0
74 78 -79 0
-74 -78 -79 0
74 -78 79 0
-74 78 79 0
65 -79 -80 0
-65 79 -80 0
65 79 80 0
-65 -79 80 0
58 80 -81 0
-58 -80 -81 0
58 -80 81 0
-58 80 81 0
30 -2 -82 0
-30 2 -82 0
30 2 82 0
-30 -2 82 0
-60 48 -83 0
60 -48 -83 0
-60 -48 83 0
60 48 83 0
84 -82 0
84 83 0
82 -83 -84 0
-8 -1 -85 0
8 1 -85 0
-8 1 85 0
8 -1 85 0
-11 85 -86 0
11 -85 -86 0
-11 -85 86 0
11 85 86 0
-6 -86 -87 0
6 86 -87 0
-6 86 87 0
6 -86 87 0
-88 4 0
-88 -20 0
-4 20 88 0
89 -87 0
89 88 0
87 -88 -89 0
-84 -89 -90 0
84 89 -90 0
-84 89 90 0
84 -89 90 0
-91 -81 0
-91 90 0
81 -90 91 0
92 6 0
92 -40 0
-6 40 -92 0
-92 -23 -93 0
92 23 -93 0
-92 23 93 0
92 -23 93 0
94 52 0
94 4 0
-52 -4 -94 0
-95 85 0
-95 -94 0
-85 94 95 0
62 -95 -96 0
-62 95 -96 0
62 95 96 0
-62 -95 96 0
93 -96 -97 0
-93 96 -97 0
93 96 97 0
-93 -96 97 0
98 56 0
98 60 0
-56 -60 -98 0
99 -98 0
99 35 0
98 -35 -99 0
-97 -99 -100 0
97 99 -100 0
-97 99 100 0
97 -99 100 0
101 -54 0
101 -31 0
54 31 -101 0
-102 98 0
-102 -14 0
-98 14 102 0
-103 101 0
-103 -102 0
-101 102 103 0
104 11 0
104 -69 0
-11 69 -104 0
-105 -72 0
-105 -104 0
72 104 105 0
106 105 0
106 94 0
-105 -94 -106 0
107 -103 0
107 -106 0
103 106 -107 0
-4 104 -108 0
4 -104 -108 0
-4 -104 108 0
4 104 108 0
-109 108 0
-109 104 0
-108 -104 109 0
110 -48 0
110 4 0
48 -4 -110 0
111 110 0
111 53 0
-110 -53 -111 0
112 109 0
112 111 0
-109 -111 -112 0
113 32 0
113 25 0
-32 -25 -113 0
-71 108 -114 0
71 -108 -114 0
-71 -108 114 0
71 108 114 0
-115 -113 0
-115 114 0
113 -114 115 0
-116 -104 0
-116 72 0
104 -72 116 0
-117 -115 0
-117 116 0
115 -116 117 0
-118 13 0
-118 -63 0
-13 63 118 0
-119 25 0
-119 69 0
-25 -69 119 0
120 119 0
120 -9 0
-119 9 -120 0
-121 -119 0
-121 -120 0
119 120 121 0
-118 -121 -122 0
118 121 -122 0
-118 121 122 0
118 -121 122 0
-117 -122 -123 0
117 122 -123 0
-117 122 123 0
117 -122 123 0
-124 -112 0
-124 123 0
112 -123 124 0
125 -107 0
125 -124 0
107 124 -125 0
126 100 0
126 125 0
-100 -125 -126 0
-127 108 0
-127 -9 0
-108 9 127 0
-9 39 -128 0
9 -39 -128 0
-9 -39 128 0
9 39 128 0
-129 127 0
-129 128 0
-127 -128 129 0
-130 -16 0
-130 8 0
16 -8 130 0
130 -15 -131 0
-130 15 -131 0
130 15 131 0
-130 -15 131 0
132 -131 0
132 69 0
131 -69 -132 0
133 129 0
133 -132 0
-129 132 -133 0
-126 -133 -134 0
126 133 -134 0
-126 133 134 0
126 -133 134 0
-91 -134 -135 0
91 134 -135 0
-91 134 135 0
91 -134 135 0
37 -135 -136 0
-37 135 -136 0
37 135 136 0
-37 -135 136 0
117 -99 128 61 -112 97 91 18 50 0
128 -109 -5 125 29 133 102 0
-85 -45 52 -110 0
106 10 107 49 -46 -38 -71 0
48 -61 -4 12 -52 -1 127 -85 0
37 120 -90 22 -2 -122 82 71 -132 0
-83 -102 74 -45 30 0
-82 -122 -86 10 57 -101 -132 -105 0
84 19 101 -71 -82 -21 -130 95 0
-32 -23 -94 -115 28 133 -8 -68 0
-65 111 -31 -24 9 101 71 27 102 92 0
-129 -125 124 -116 -50 -60 58 -38 0
44 -87 -96 102 0
65 -57 67 20 -107 0
116 72 47 -67 25 46 -135 0
-21 108 121 -38 35 0
-95 -122 -103 33 -3 36 -119 -68 10 -87 0
104 123 -28 -78 -39 -19 0
50 -22 -39 76 -98 -107 -127 -45 0
-2 -6 41 117 -121 -34 49 0
-125 -122 -117 -18 40 -64 0
135 88 100 0
136 69 110 -6 -50 107 -134 -36 0
106 -47 -120 -39 -23 18 -119 -123 -99 -13 0
48 -21 133 50 100 27 -37 -92 -30 -134 0
-85 117 -86 124 113 0
76 -28 -14 113 122 102 36 61 127 71 0
-74 -4 120 67 -69 0
-56 103 -131 15 -134 0
134 -99 45 83 0
-19 94 93 0
-17 109 -86 0
-94 2 102 -35 -4 -126 52 90 -132 0
-21 88 -126 -108 89 80 -58 0
-119 95 -10 -47 0
-57 13 -58 66 -1 9 44 32 -2 0
-115 83 -40 107 116 44 0
73 -97 0
-136 35 -91 90 -74 0
90 -36 -3 114 -4 -53 0
-69 39 42 112 -59 0
-111 -30 6 20 76 89 136 -26 0
3 -77 4 -109 -41 59 0
94 27 44 11 -96 7 0
114 14 -39 0
-78 -104 120 -69 -33 -72 34 118 0
54 -48 -119 -38 -101 -79 98 -26 0
-62 97 93 -129 -130 -13 15 0
37 43 -112 58 -100 -46 -63 -41 57 74 0
-128 -4 -99 -23 63 -75 91 76 0
-48 -59 46 67 -61 -37 -65 19 -40 7 0
-55 71 -17 -40 61 -109 116 0
-112 -33 -60 27 32 109 59 -79 0
106 -8 -123 32 58 111 -17 0
-59 78 95 115 19 -92 -109 0
-12 -8 -76 -45 52 -75 82 126 0
-75 65 -82 113 9 -68 0
-83 126 127 33 44 55 0
79 -40 50 0
5 9 -13 103 -57 -1 -68 -21 -112 93 0
-68 -96 -112 -100 -27 0
-45 -15 40 18 -94 0
-83 86 43 -76 22 124 -70 -35 0
5 114 99 2 57 53 -80 68 0
128 110 11 -124 0
136 0
